/*********************************************
    * Lab01 - FCD_FCR
    * Author: Coso
    * Creation Date: Mar, 2019
    *********************************************/
instance_name = "small_instance_23_FCD_FCR";

d = 2;
r = 3;

SCj = [38 29];
Fj = [2575, 3767];
Dk = [11 30 26];

Cjk = [[83 64 30]
 [83 82 67]];
Fjk = [[563 501 748]
 [525 932 533]];
